NAME          ClpDefau  FREE
ROWS
 N  OBJROW
 L  ZMUNI1_PCT
 L  ZMUNI2_PCT
 L  ZMUNI3_PCT
 L  ZMUNI4_PCT
 L  ZMUNI5_PCT
 L  ZMUNI6_PCT
 L  ZMUNI7_PCT
 L  ZMUNI8_PCT
 L  ZMUNI9_PCT
COLUMNS
    QMUNI1 OBJROW 1.          
    QMUNI1 ZMUNI1_PCT 29463.9588  
    QMUNI1 ZMUNI2_PCT 1570.3201   
    QMUNI1 ZMUNI3_PCT 4046.4401   
    QMUNI1 ZMUNI4_PCT 2950.2869   
    QMUNI1 ZMUNI5_PCT  -305.1757  
    QMUNI1 ZMUNI6_PCT  -111.1984  
    QMUNI1 ZMUNI7_PCT 1134.8724   
    QMUNI1 ZMUNI8_PCT 731.2775    
    QMUNI1 ZMUNI9_PCT  -206.7565  
    QMUNI2 OBJROW 1.          
    QMUNI2 ZMUNI1_PCT 1566.8869   
    QMUNI2 ZMUNI2_PCT 34941.6732  
    QMUNI2 ZMUNI3_PCT 2358.2458   
    QMUNI2 ZMUNI4_PCT 2545.3568   
    QMUNI2 ZMUNI5_PCT  -170.5169  
    QMUNI2 ZMUNI6_PCT  -107.3837  
    QMUNI2 ZMUNI7_PCT 449.3713    
    QMUNI2 ZMUNI8_PCT 592.4225    
    QMUNI2 ZMUNI9_PCT 350.9522    
    QMUNI3 OBJROW 1.          
    QMUNI3 ZMUNI1_PCT 3874.588    
    QMUNI3 ZMUNI2_PCT 2317.0471   
    QMUNI3 ZMUNI3_PCT 30721.0922  
    QMUNI3 ZMUNI4_PCT 4851.532    
    QMUNI3 ZMUNI5_PCT  -486.7553  
    QMUNI3 ZMUNI6_PCT  -315.4754  
    QMUNI3 ZMUNI7_PCT 795.7458    
    QMUNI3 ZMUNI8_PCT 632.8583    
    QMUNI3 ZMUNI9_PCT  -217.6284  
    QMUNI4 OBJROW 1.          
    QMUNI4 ZMUNI1_PCT 3061.4853   
    QMUNI4 ZMUNI2_PCT 2831.6497   
    QMUNI4 ZMUNI3_PCT 5264.0915   
    QMUNI4 ZMUNI4_PCT 109245.5864 
    QMUNI4 ZMUNI5_PCT  -677.4902  
    QMUNI4 ZMUNI6_PCT  -505.4474  
    QMUNI4 ZMUNI7_PCT 631.7139    
    QMUNI4 ZMUNI8_PCT 661.4685    
    QMUNI4 ZMUNI9_PCT 144.3863    
    QMUNI5 OBJROW 1.          
    QMUNI5 ZMUNI1_PCT  -133.5144  
    QMUNI5 ZMUNI2_PCT  -330.1621  
    QMUNI5 ZMUNI3_PCT  -195.5033  
    QMUNI5 ZMUNI4_PCT  -197.6013  
    QMUNI5 ZMUNI5_PCT 36439.1327  
    QMUNI5 ZMUNI6_PCT 2490.2344   
    QMUNI5 ZMUNI7_PCT  -268.5547  
    QMUNI5 ZMUNI8_PCT  -532.7225  
    QMUNI5 ZMUNI9_PCT  -827.5985  
    QMUNI6 OBJROW 1.          
    QMUNI6 ZMUNI1_PCT 401.1154    
    QMUNI6 ZMUNI2_PCT 215.5304    
    QMUNI6 ZMUNI3_PCT 323.8678    
    QMUNI6 ZMUNI4_PCT 262.9281    
    QMUNI6 ZMUNI5_PCT 2914.4288   
    QMUNI6 ZMUNI6_PCT 33696.5561  
    QMUNI6 ZMUNI7_PCT 539.0167    
    QMUNI6 ZMUNI8_PCT 319.2902    
    QMUNI6 ZMUNI9_PCT 287.056     
    QMUNI7 OBJROW 1.          
    QMUNI7 ZMUNI1_PCT 1066.2079   
    QMUNI7 ZMUNI2_PCT 467.3004    
    QMUNI7 ZMUNI3_PCT 899.5056    
    QMUNI7 ZMUNI4_PCT 650.8828    
    QMUNI7 ZMUNI5_PCT  -305.7479  
    QMUNI7 ZMUNI6_PCT  -76.4846   
    QMUNI7 ZMUNI7_PCT 31692.1234  
    QMUNI7 ZMUNI8_PCT 1607.5134   
    QMUNI7 ZMUNI9_PCT  -197.6013  
    QMUNI8 OBJROW 1.          
    QMUNI8 ZMUNI1_PCT 1017.952    
    QMUNI8 ZMUNI2_PCT 778.0075    
    QMUNI8 ZMUNI3_PCT 1016.6168   
    QMUNI8 ZMUNI4_PCT 800.705     
    QMUNI8 ZMUNI5_PCT  -168.4188  
    QMUNI8 ZMUNI6_PCT  -43.4875   
    QMUNI8 ZMUNI7_PCT 2040.1001   
    QMUNI8 ZMUNI8_PCT 29287.1475  
    QMUNI8 ZMUNI9_PCT 654.7928    
    QMUNI9 OBJROW 1.          
    QMUNI9 ZMUNI1_PCT  -127.6016  
    QMUNI9 ZMUNI2_PCT 144.1955    
    QMUNI9 ZMUNI3_PCT  -35.286    
    QMUNI9 ZMUNI4_PCT  -18.3105   
    QMUNI9 ZMUNI5_PCT  -929.8324  
    QMUNI9 ZMUNI6_PCT  -882.3394  
    QMUNI9 ZMUNI7_PCT  -715.2558  
    QMUNI9 ZMUNI8_PCT  -192.4515  
    QMUNI9 ZMUNI9_PCT 26752.8534  
RHS
    RHS ZMUNI1_PCT 0.0885238943
    RHS ZMUNI2_PCT  -0.18053275
    RHS ZMUNI3_PCT -0.094663468
    RHS ZMUNI4_PCT  -0.82713409
    RHS ZMUNI5_PCT  -0.28722762
    RHS ZMUNI6_PCT -0.090361861
    RHS ZMUNI7_PCT  -0.11866931
    RHS ZMUNI8_PCT  -0.26441592
    RHS ZMUNI9_PCT  -0.69995887
BOUNDS
 LO BOUND QMUNI1 -0.000685407
 UP BOUND QMUNI1      1.1e+10
 LO BOUND QMUNI2 -0.000489219
 UP BOUND QMUNI2      1.1e+10
 LO BOUND QMUNI3 -0.000556793
 UP BOUND QMUNI3      1.1e+10
 LO BOUND QMUNI4 -0.000214426
 UP BOUND QMUNI4      1.1e+10
 LO BOUND QMUNI5 -0.000355605
 UP BOUND QMUNI5      1.1e+10
 LO BOUND QMUNI6 -0.000498363
 UP BOUND QMUNI6      1.1e+10
 LO BOUND QMUNI7 -0.000189562
 UP BOUND QMUNI7      1.1e+10
 LO BOUND QMUNI8 -0.000302234
 UP BOUND QMUNI8      1.1e+10
 LO BOUND QMUNI9 -0.000319208
 UP BOUND QMUNI9      1.1e+10
ENDATA
